p cnf 23 55
a 12 0
e 1 2 3 4 5 6 7 8 9 10 11 13 14 15 16 17 18 19 20 21 22 23 0
-5 3 0
-5 4 0
-3 -4 5 0
-6 2 0
-6 -5 0
-2 5 6 0
-7 -1 0
-7 6 0
1 -6 7 0
-8 7 0
-8 2 0
-7 -2 8 0
10 -9 0
10 -1 0
9 1 -10 0
-5 4 -11 0
5 -4 -11 0
-5 -4 11 0
5 4 11 0
10 -11 -12 0
-10 11 -12 0
10 11 12 0
-10 -11 12 0
-16 -14 0
-16 15 0
14 -15 16 0
-13 -16 -17 0
13 16 -17 0
-13 16 17 0
13 -16 17 0
18 -12 0
18 17 0
12 -17 -18 0
19 -8 0
19 18 0
8 -18 -19 0
20 -7 0
20 -16 0
7 16 -20 0
21 1 0
21 -2 0
-1 2 -21 0
-20 21 -22 0
20 -21 -22 0
-20 -21 22 0
20 21 22 0
23 -19 0
23 22 0
19 -22 -23 0
12 -18 -11 -17 0
-11 -14 0
11 3 -2 -12 15 0
21 0
-8 20 -7 -11 -5 0
23 0
